233 232 234 235 236 237 240 239 238 246 247 245 244 243 242 241 248 249 250 251 252 254 253 255 256 257 300 299 258 259 260 261 262 263 264 265 266 298 297 296 295 294 293 270 269 268 267 271 272 273 274 275 292 291 290 289 288 276 277 278 279 282 281 280 287 286 285 284 283 334 335 336 337 338 339 333 332 331 330 340 341 342 343 344 345 346 347 348 349 350 351 415 416 414 413 352 353 354 355 357 358 359 361 362 363 364 365 367 366 329 328 324 322 323 325 326 327 368 369 370 372 371 396 395 394 397 398 399 407 408 406 405 404 400 403 401 360 402 356 412 411 410 418 417 419 420 421 422 423 424 425 426 427 428 429 430 437 438 436 435 434 433 432 431 382 383 384 409 385 386 387 388 389 390 391 393 392 381 380 379 378 377 376 375 373 374 315 314 316 313 309 310 311 312 451 450 441 440 442 449 448 447 446 445 444 443 439 454 455 456 457 458 571 572 573 0 1 2 3 4 5 6 7 8 9 10 11 13 12 23 22 31 32 30 29 28 27 26 25 24 21 14 15 16 17 18 19 20 568 569 570 468 469 470 496 497 464 465 467 466 463 462 460 459 461 452 453 499 500 501 498 502 503 504 505 308 307 305 318 317 321 320 319 306 304 303 301 302 508 507 506 509 510 511 513 512 527 514 515 516 517 519 518 520 521 522 523 526 491 492 493 525 524 494 495 471 472 473 474 567 566 565 564 563 562 561 560 549 548 550 559 558 557 556 555 46 45 44 41 40 38 35 34 33 36 37 39 42 43 47 48 49 54 53 55 56 83 82 57 58 59 81 80 79 61 60 63 62 78 87 90 86 85 84 51 52 50 91 92 93 94 97 554 553 552 551 101 102 100 99 98 96 95 89 88 77 76 64 75 74 73 123 71 72 65 66 67 68 70 69 124 125 126 127 128 131 132 133 130 129 137 138 139 140 141 151 150 149 152 148 147 146 145 143 142 144 136 135 134 158 157 159 156 155 153 154 160 161 113 112 114 115 116 117 122 121 120 119 118 106 105 104 103 547 546 545 544 543 541 542 107 110 111 109 108 173 174 175 172 170 171 169 168 162 163 167 166 164 165 203 204 202 201 200 199 198 205 206 207 208 209 210 211 212 213 214 215 216 217 223 224 222 221 220 218 219 193 194 195 196 197 184 185 183 182 181 180 179 178 177 176 187 188 186 192 191 190 226 225 189 227 228 229 230 231 533 488 534 487 535 536 537 539 538 540 478 477 479 480 476 475 482 481 483 484 485 486 489 532 531 530 490 529 528